NAME: zeroPath
TYPE: TSP
COMMENT: 10 with one 0 route (Zbigniew Czarnecki)
DIMENSION: 10
EDGE_WEIGHT_TYPE: MATRIX
EDGE_COORD_SECTION
3 0 4 72 36 25 37 120 2 15
31 5 0 71 3 2 7 10 12 15
3 25 46 0 3 2 7 10 2 1
32 15 47 67 0 2 7 10 12 15
33 25 49 7 3 0 7 10 2 1
31 58 47 57 3 2 0 10 12 5
33 35 41 47 3 2 7 0 12 15
35 54 42 37 3 2 7 10 0 1
73 25 43 27 3 2 7 1 12 0
0 53 44 17 3 2 7 10 12 15
EOF
